Problem:    
Rows:       113
Columns:    45 (34 integer, 34 binary)
Non-zeros:  350
Status:     INTEGER OPTIMAL
Objective:  value = 4.1702 (MINimum)

   No.   Row name        Activity     Lower bound   Upper bound
------ ------------    ------------- ------------- -------------
     1 r.5                    4.1702             0               
     2 r.6                    4.1702      -1022.72               
     3 r.7                   1028.17             0               
     4 r.8                  -1019.83      -1022.06               
     5 r.9                    4.1702             0               
     6 r.10                   4.1702      -1023.37               
     7 r.11                  1028.17             0               
     8 r.12                 -1021.77      -1023.03               
     9 r.13                  1028.17             0               
    10 r.14                 -1022.55      -1022.65               
    11 r.15                   4.1702             0               
    12 r.16                   4.1702      -1018.47               
    13 r.17                  1028.17             0               
    14 r.18                 -1019.83      -1021.28               
    15 r.19                   4.1702             0               
    16 r.20                   4.1702      -1018.22               
    17 r.21                  1028.17             0               
    18 r.22                  -1023.9       -1023.9               
    19 r.23                   4.1702             0               
    20 r.24                 -1022.62      -1022.62               
    21 r.25                        1             1             = 
    22 r.26                        1             1             = 
    23 r.27                        1             1             = 
    24 r.28                        1             1             = 
    25 r.29                        1             1             = 
    26 r.30                     1024             2               
    27 r.31                    -1024         -1025               
    28 r.32                     2048      -1023.37               
    29 r.33                        2             2               
    30 r.34                       -2         -1025               
    31 r.35                 -1.93541      -1023.03               
    32 r.36                     1025             2               
    33 r.37                    -1025         -1025               
    34 r.38                  2045.28      -1022.65               
    35 r.39                     1025             2               
    36 r.40                    -1025         -1025               
    37 r.41                     2048      -1018.47               
    38 r.42                     1025             2               
    39 r.43                    -1025         -1025               
    40 r.44                     2048      -1021.28               
    41 r.45                     1025             2               
    42 r.46                    -1025         -1025               
    43 r.47                     2048      -1018.22               
    44 r.48                   4.0681      -1022.72               
    45 r.49                 -1019.93      -1022.06               
    46 r.50                  1026.79      -1022.72               
    47 r.51                  2.79495      -1022.06               
    48 r.52                     1024             2               
    49 r.53                    -1024         -1025               
    50 r.54                     2048        1.2798               
    51 r.55                        2             2               
    52 r.56                       -2         -1025               
    53 r.57                  1.93541       1.93541               
    54 r.58                     1025             2               
    55 r.59                    -1025         -1025               
    56 r.60                  2045.28      -1022.65               
    57 r.61                     1025             2               
    58 r.62                    -1025         -1025               
    59 r.63                  2049.94      -1018.47               
    60 r.64                     1025             2               
    61 r.65                    -1025         -1025               
    62 r.66                     2048      -1021.28               
    63 r.67                     1025             2               
    64 r.68                    -1025         -1025               
    65 r.69                  2049.94      -1018.22               
    66 r.70                   4.0681      -1023.37               
    67 r.71                 -1021.87      -1023.03               
    68 r.72                  1026.79      -1023.37               
    69 r.73                 0.859545      -1023.03               
    70 r.74                     1025             2               
    71 r.75                    -1025         -1025               
    72 r.76                  2050.72        1.2798               
    73 r.77                     1025             2               
    74 r.78                    -1025         -1025               
    75 r.79                     2048       1.93541               
    76 r.80                     1025             2               
    77 r.81                    -1025         -1025               
    78 r.82                  2050.72        0.6299               
    79 r.83                     1025             2               
    80 r.84                    -1025         -1025               
    81 r.85                  2046.06         0.974               
    82 r.86                        2             2               
    83 r.87                       -2         -1025               
    84 r.88                 -1021.28      -1021.28               
    85 r.89                     1024             2               
    86 r.90                    -1024         -1025               
    87 r.91                     2048      -1018.22               
    88 r.92                 -1022.65      -1022.65               
    89 r.93                   4.0681      -1018.47               
    90 r.94                  0.07405      -1022.65               
    91 r.95                  1026.79      -1018.47               
    92 r.96                     1025             2               
    93 r.97                    -1025         -1025               
    94 r.98                     2048        1.2798               
    95 r.99                     1025             2               
    96 r.100                   -1025         -1025               
    97 r.101                    2048       1.93541               
    98 r.102                    1025             2               
    99 r.103                   -1025         -1025               
   100 r.104                    2048        0.6299               
   101 r.105                    1025             2               
   102 r.106                   -1025         -1025               
   103 r.107                 2046.06         0.974               
   104 r.108                       2             2               
   105 r.109                      -2         -1025               
   106 r.110                 1021.28        1.3472               
   107 r.111                    1024             2               
   108 r.112                   -1024         -1025               
   109 r.113                    2048       5.53429               
   110 r.114                -1019.93      -1021.28               
   111 r.115                  4.0681      -1018.22               
   112 r.116                 2.79495      -1021.28               
   113 r.117                 1026.79      -1018.22               

   No. Column name       Activity     Lower bound   Upper bound
------ ------------    ------------- ------------- -------------
     1 tt                     4.1702             0               
     2 s_1_1        *              0             0             1 
     3 t_1_1                       0             0               
     4 s_2_1        *              1             0             1 
     5 t_2_1                       0             0               
     6 s_1_2        *              0             0             1 
     7 t_1_2                       0             0               
     8 s_2_2        *              1             0             1 
     9 t_2_2                 1.93541             0               
    10 s_1_3        *              1             0             1 
    11 t_1_3                  2.7209             0               
    12 s_2_3        *              0             0             1 
    13 t_2_3                       0             0               
    14 s_1_4        *              1             0             1 
    15 t_1_4                       0             0               
    16 s_2_4        *              0             0             1 
    17 t_2_4                       0             0               
    18 s_1_5        *              1             0             1 
    19 t_1_5                  4.0681             0               
    20 s_2_5        *              0             0             1 
    21 t_2_5                 1026.79             0               
    22 r_1_1_2      *              1             0             1 
    23 u_1_1_2      *              0             0             1 
    24 r_2_1_2      *              0             0             1 
    25 u_2_1_2      *              0             0             1 
    26 r_1_1_3      *              1             0             1 
    27 u_1_1_3      *              0             0             1 
    28 r_2_1_3      *              1             0             1 
    29 u_2_1_3      *              0             0             1 
    30 r_1_1_4      *              1             0             1 
    31 u_1_1_4      *              0             0             1 
    32 r_2_1_4      *              1             0             1 
    33 u_2_1_4      *              0             0             1 
    34 r_1_2_3      *              1             0             1 
    35 u_1_2_3      *              0             0             1 
    36 r_2_2_3      *              1             0             1 
    37 u_2_2_3      *              0             0             1 
    38 r_1_2_4      *              1             0             1 
    39 u_1_2_4      *              0             0             1 
    40 r_2_2_4      *              1             0             1 
    41 u_2_2_4      *              0             0             1 
    42 r_1_3_4      *              0             0             1 
    43 u_1_3_4      *              1             0             1 
    44 r_2_3_4      *              1             0             1 
    45 u_2_3_4      *              0             0             1 

Integer feasibility conditions:

KKT.PE: max.abs.err = 0.00e+00 on row 0
        max.rel.err = 0.00e+00 on row 0
        High quality

KKT.PB: max.abs.err = 0.00e+00 on row 0
        max.rel.err = 0.00e+00 on row 0
        High quality

End of output
